p cnf 21 10
-4 -7 -13 10 -15 0
7 6 8 -11 19 0
5 -11 8 0
-20 8 -16 -15 -13 -12 -6 0
-12 -5 -21 3 -7 14 -15 -10 -2 0
11 -17 -12 20 1 -5 0
-18 21 8 4 0
-4 -20 -12 17 0
14 -3 10 4 1 -20 6 17 15 0
-12 13 6 -8 -7 16 -19 0
